NAME: CMT5_4
TYPE: CVRP
COMMENT: 1291.29 - Cluster Nr.4
DIMENSION: 12
CAPACITY: 200
EDGE_WEIGHT_TYPE: EUC_2D
NODE_COORD_TYPE: TWOD_COORDS
NODE_COORD_SECTION: 
6 10 43
9 17 33
1 20 40
7 17 34
8 6 38
4 21 36
12 7 38
2 12 38
10 7 43
5 14 37
3 35 35
11 12 42
DEPOT_SECTION: 
3
-1
DEMAND_SECTION: 
4 19
11 21
3 0
6 9
12 28
9 41
10 27
2 5
5 11
8 16
7 3
1 12
EOF
